n_res = 4;
rc = [ 12, 14, 12, 12 ];
n_tasks = 30;
d = [ 2, 5, 4, 6, 9, 8, 1, 9, 5, 10, 9, 6, 7, 1, 5, 1, 4, 10, 4, 3, 8, 7, 2, 7, 7, 8, 2, 4, 8, 1 ];
rr = [| 0, 0, 0, 0, 0, 0, 2, 0, 0, 0, 0, 2, 0, 10, 0, 0, 0, 2, 5, 8, 0, 0, 2, 0, 8, 0, 0, 0, 0, 0
      | 0, 0, 0, 0, 2, 3, 0, 0, 0, 9, 0, 0, 0, 0, 6, 0, 9, 0, 0, 0, 0, 0, 0, 0, 0, 4, 0, 0, 0, 8
      | 0, 0, 7, 0, 0, 0, 0, 2, 0, 0, 9, 0, 7, 0, 0, 0, 0, 0, 0, 0, 5, 0, 0, 0, 0, 0, 3, 1, 0, 0
      | 9, 1, 0, 8, 0, 0, 0, 0, 6, 0, 0, 0, 0, 0, 0, 5, 0, 0, 0, 0, 0, 1, 0, 10, 0, 0, 0, 0, 10, 0 |];
suc = [ { 2 }, 
        { 3 }, 
        { 4 }, 
        { 5 }, 
        { 6 }, 
        { 7 }, 
        { 8 }, 
        { 9 }, 
        { 10 }, 
        { 11 }, 
        { 12 }, 
        { 13 }, 
        { 14 }, 
        { 15 }, 
        { 16 }, 
        { 17 }, 
        { 18 }, 
        { 19 }, 
        { 20 }, 
        { 21 }, 
        { 22 }, 
        { 23 }, 
        { 24 }, 
        { 25 }, 
        { 26 }, 
        { 27 }, 
        { 28 }, 
        { 29 }, 
        { 30 }, 
        {  }]; 
